p cnf 181 523
-8 1 0
-8 -2 0
8 -1 2 0
-9 4 0
-9 5 0
9 -4 -5 0
-10 8 0
-10 9 0
10 -8 -9 0
-11 2 0
-11 4 0
11 -2 -4 0
-12 5 0
-12 11 0
12 -5 -11 0
-13 -10 0
-13 -12 0
13 10 12 0
-14 -3 0
-14 -13 0
14 3 13 0
-15 -2 0
-15 4 0
15 2 -4 0
-16 5 0
-16 15 0
16 -5 -15 0
-17 -4 0
-17 -5 0
17 4 5 0
-18 -9 0
-18 -17 0
18 9 17 0
-19 2 0
-19 -18 0
19 -2 18 0
-20 -16 0
-20 -19 0
20 16 19 0
-21 3 0
-21 -20 0
21 -3 20 0
-22 -14 0
-22 -21 0
22 14 21 0
-23 -1 0
-23 -9 0
23 1 9 0
-24 -1 0
-24 -23 0
24 1 23 0
-25 -2 0
-25 -24 0
25 2 24 0
-26 -4 0
-26 -17 0
26 4 17 0
-27 2 0
-27 -26 0
27 -2 26 0
-28 -25 0
-28 -27 0
28 25 27 0
-29 -3 0
-29 -28 0
29 3 28 0
-30 -4 0
-30 5 0
30 4 -5 0
-31 -4 0
-31 -30 0
31 4 30 0
-32 2 0
-32 -31 0
32 -2 31 0
-33 2 0
-33 -32 0
33 -2 32 0
-34 3 0
-34 -33 0
34 -3 33 0
-35 -29 0
-35 -34 0
35 29 34 0
-36 -1 0
-36 -18 0
36 1 18 0
-37 4 0
-37 -9 0
37 -4 9 0
-38 1 0
-38 -37 0
38 -1 37 0
-39 -36 0
-39 -38 0
39 36 38 0
-40 2 0
-40 -39 0
40 -2 39 0
-41 -25 0
-41 -40 0
41 25 40 0
-42 -3 0
-42 -41 0
42 3 41 0
-43 -3 0
-43 -42 0
43 3 42 0
-44 -1 0
-44 -4 0
44 1 4 0
-45 -30 0
-45 44 0
45 30 -44 0
-46 1 0
-46 -18 0
46 -1 18 0
-47 -45 0
-47 -46 0
47 45 46 0
-48 -2 0
-48 -47 0
48 2 47 0
-49 -27 0
-49 -48 0
49 27 48 0
-50 -3 0
-50 -49 0
50 3 49 0
-51 3 0
-51 -26 0
51 -3 26 0
-52 -50 0
-52 -51 0
52 50 51 0
-53 -1 0
-53 4 0
53 1 -4 0
-54 5 0
-54 6 0
54 -5 -6 0
-55 53 0
-55 54 0
55 -53 -54 0
-56 4 0
-56 -7 0
56 -4 7 0
-57 -9 0
-57 56 0
57 9 -56 0
-58 4 0
-58 -6 0
58 -4 6 0
-59 -9 0
-59 58 0
59 9 -58 0
-60 4 0
-60 6 0
60 -4 -6 0
-61 -59 0
-61 -60 0
61 59 60 0
-62 7 0
-62 -61 0
62 -7 61 0
-63 -57 0
-63 -62 0
63 57 62 0
-64 1 0
-64 -63 0
64 -1 63 0
-65 -55 0
-65 -64 0
65 55 64 0
-66 2 0
-66 -65 0
66 -2 65 0
-67 -3 0
-67 -66 0
67 3 66 0
-68 1 0
-68 -26 0
68 -1 26 0
-69 1 0
-69 -68 0
69 -1 68 0
-70 3 0
-70 -69 0
70 -3 69 0
-71 -67 0
-71 -70 0
71 67 70 0
-72 4 0
-72 7 0
72 -4 -7 0
-73 -57 0
-73 -72 0
73 57 72 0
-74 2 0
-74 -73 0
74 -2 73 0
-75 -3 0
-75 -74 0
75 3 74 0
-76 2 0
-76 -27 0
76 -2 27 0
-77 3 0
-77 -76 0
77 -3 76 0
-78 -75 0
-78 -77 0
78 75 77 0
-79 -2 0
-79 -9 0
79 2 9 0
-80 -17 0
-80 79 0
80 17 -79 0
-81 -17 0
-81 23 0
81 17 -23 0
-82 1 0
-82 -31 0
82 -1 31 0
-83 -81 0
-83 -82 0
83 81 82 0
-84 2 0
-84 -83 0
84 -2 83 0
-85 -80 0
-85 -84 0
85 80 84 0
-86 -3 0
-86 -85 0
86 3 85 0
-87 3 0
-87 4 0
87 -3 -4 0
-88 5 0
-88 87 0
88 -5 -87 0
-89 -86 0
-89 -88 0
89 86 88 0
-90 -2 0
-90 -3 0
90 2 3 0
-91 -25 0
-91 90 0
91 25 -90 0
-92 2 0
-92 -47 0
92 -2 47 0
-93 -10 0
-93 -92 0
93 10 92 0
-94 3 0
-94 -93 0
94 -3 93 0
-95 -91 0
-95 -94 0
95 91 94 0
-96 -1 0
-96 -26 0
96 1 26 0
-97 -1 0
-97 -96 0
97 1 96 0
-98 2 0
-98 -97 0
98 -2 97 0
-99 2 0
-99 -3 0
99 -2 3 0
-100 -98 0
-100 99 0
100 98 -99 0
-101 2 0
-101 3 0
101 -2 -3 0
-102 -18 0
-102 101 0
102 18 -101 0
-103 -100 0
-103 -102 0
103 100 102 0
-104 -79 0
-104 -98 0
104 79 98 0
-105 -3 0
-105 -104 0
105 3 104 0
-106 -34 0
-106 -105 0
106 34 105 0
-107 -53 0
-107 -82 0
107 53 82 0
-108 2 0
-108 -107 0
108 -2 107 0
-109 -3 0
-109 -80 0
109 3 80 0
-110 -108 0
-110 109 0
110 108 -109 0
-111 -51 0
-111 -110 0
111 51 110 0
-112 -1 0
-112 -31 0
112 1 31 0
-113 -1 0
-113 -112 0
113 1 112 0
-114 -2 0
-114 -113 0
114 2 113 0
-115 -2 0
-115 -114 0
115 2 114 0
-116 -3 0
-116 -115 0
116 3 115 0
-117 -3 0
-117 -116 0
117 3 116 0
-118 -2 0
-118 -107 0
118 2 107 0
-119 -32 0
-119 -118 0
119 32 118 0
-120 -3 0
-120 -119 0
120 3 119 0
-121 -2 0
-121 5 0
121 2 -5 0
-122 2 0
-122 -37 0
122 -2 37 0
-123 -121 0
-123 -122 0
123 121 122 0
-124 3 0
-124 -123 0
124 -3 123 0
-125 -120 0
-125 -124 0
125 120 124 0
-126 1 0
-126 -82 0
126 -1 82 0
-127 3 0
-127 -126 0
127 -3 126 0
-128 3 0
-128 -127 0
128 -3 127 0
-129 3 0
-129 -113 0
129 -3 113 0
-130 3 0
-130 -129 0
130 -3 129 0
-131 -1 0
-131 -37 0
131 1 37 0
-132 -1 0
-132 -131 0
132 1 131 0
-133 -2 0
-133 -132 0
133 2 132 0
-134 -2 0
-134 -133 0
134 2 133 0
-135 3 0
-135 -134 0
135 -3 134 0
-136 3 0
-136 -135 0
136 -3 135 0
-137 1 0
-137 -38 0
137 -1 38 0
-138 -2 0
-138 -137 0
138 2 137 0
-139 -2 0
-139 -138 0
139 2 138 0
-140 3 0
-140 -139 0
140 -3 139 0
-141 3 0
-141 -140 0
141 -3 140 0
-142 2 0
-142 -137 0
142 -2 137 0
-143 2 0
-143 -142 0
143 -2 142 0
-144 3 0
-144 -143 0
144 -3 143 0
-145 3 0
-145 -144 0
145 -3 144 0
-146 2 0
-146 -132 0
146 -2 132 0
-147 2 0
-147 -146 0
147 -2 146 0
-148 3 0
-148 -147 0
148 -3 147 0
-149 3 0
-149 -148 0
149 -3 148 0
-150 3 0
-150 -31 0
150 -3 31 0
-151 3 0
-151 -150 0
151 -3 150 0
-152 1 0
-152 2 0
152 -1 -2 0
-153 -61 0
-153 152 0
153 61 -152 0
-154 8 0
-154 -38 0
154 -8 38 0
-155 -3 0
-155 -154 0
155 3 154 0
-156 -153 0
-156 155 0
156 153 -155 0
-157 2 0
-157 -24 0
157 -2 24 0
-158 -79 0
-158 -157 0
158 79 157 0
-159 3 0
-159 -158 0
159 -3 158 0
-160 -156 0
-160 -159 0
160 156 159 0
-161 6 0
-161 9 0
161 -6 -9 0
-162 -7 0
-162 -161 0
162 7 161 0
-163 -7 0
-163 -162 0
163 7 162 0
-164 1 0
-164 -163 0
164 -1 163 0
-165 1 0
-165 -164 0
165 -1 164 0
-166 2 0
-166 -165 0
166 -2 165 0
-167 -138 0
-167 -166 0
167 138 166 0
-168 -3 0
-168 -167 0
168 3 167 0
-169 -3 0
-169 -168 0
169 3 168 0
-170 -63 0
-170 152 0
170 63 -152 0
-171 -3 0
-171 -170 0
171 3 170 0
-172 -159 0
-172 -171 0
172 159 171 0
-173 -2 0
-173 -97 0
173 2 97 0
-174 2 0
-174 -69 0
174 -2 69 0
-175 -173 0
-175 -174 0
175 173 174 0
-176 -3 0
-176 -175 0
176 3 175 0
-177 -3 0
-177 -176 0
177 3 176 0
-178 -2 0
-178 -69 0
178 2 69 0
-179 -2 0
-179 -178 0
179 2 178 0
-180 -3 0
-180 -179 0
180 3 179 0
-181 -3 0
-181 -180 0
181 3 180 0
181 0
